NAME: random89
TYPE: TSP
DIMENSION: 89
EDGE_WEIGHT_TYPE: EXPLICIT
EDGE_WEIGHT_FORMAT: FULL_MATRIX
EDGE_WEIGHT_SECTION
0 625 625 625 625 625 625 625 625 625 625 625 625 625 625 625 625 625 625 625 625 625 10 625 625 625 625 625 625 625 625 625 625 625 625 625 625 625 625 625 625 625 625 625 625 625 625 625 625 625 625 625 625 625 625 625 625 625 625 625 625 625 625 5 625 625 625 625 625 625 625 625 625 625 625 625 625 5 9 625 625 625 625 625 15 625 625 625 625
625 0 625 625 625 625 625 625 625 625 625 625 625 625 625 15 8 9 625 625 625 625 625 625 625 4 625 625 625 625 625 625 625 625 15 625 625 625 625 625 625 625 625 7 625 625 625 625 625 625 625 625 625 625 625 625 625 625 625 625 625 625 625 625 625 625 625 625 625 625 625 625 625 625 625 625 625 625 625 625 625 625 625 625 625 625 625 625 625
625 625 0 625 625 625 625 625 625 625 5 625 625 625 625 625 625 38 625 625 625 625 625 625 625 28 625 625 625 625 9 625 625 625 625 625 625 625 625 625 625 625 625 625 625 625 625 625 625 625 625 625 625 625 625 625 625 625 625 625 625 625 625 625 625 625 625 41 625 625 625 625 625 625 625 625 625 625 16 625 625 625 625 625 625 625 625 625 625
625 625 625 0 8 625 625 9 625 625 625 625 625 625 625 625 625 625 11 625 625 625 625 625 625 625 625 625 625 625 625 625 625 625 625 625 625 13 625 625 625 625 625 625 625 625 625 625 625 625 625 625 625 625 625 625 625 625 625 6 625 625 625 625 625 625 625 625 625 625 625 625 625 625 625 625 625 625 625 625 625 625 625 625 625 625 625 10 625
625 625 625 8 0 625 625 1 625 625 625 625 625 625 625 625 625 625 625 625 625 625 625 625 625 625 625 625 625 625 625 625 625 625 625 625 625 625 14 625 625 625 625 625 625 625 625 625 625 625 625 625 625 625 625 625 625 625 625 10 625 625 625 625 625 625 21 625 625 625 625 625 625 625 625 625 625 625 625 625 625 625 625 625 625 625 625 625 625
625 625 625 625 625 0 625 625 625 625 625 625 625 625 17 625 625 625 625 625 625 625 625 625 625 625 625 625 625 625 625 625 625 625 625 625 625 625 625 13 625 625 625 625 625 625 625 625 625 625 625 7 625 625 625 625 625 625 625 625 6 625 625 625 625 625 625 625 625 15 625 625 625 13 625 625 625 625 625 625 625 625 625 625 625 625 625 625 625
625 625 625 625 625 625 0 625 625 625 625 625 625 625 625 625 625 625 625 625 625 625 625 625 625 625 625 625 625 625 625 625 625 625 625 625 625 625 625 625 625 625 625 625 625 22 625 625 625 625 625 625 625 625 625 625 625 625 625 625 625 625 625 625 625 20 625 625 625 625 625 625 625 625 11 625 625 625 625 625 625 625 10 18 625 625 4 625 625
625 625 625 9 1 625 625 0 625 625 625 625 625 625 625 625 625 625 625 625 625 625 625 625 625 625 625 625 625 625 625 625 625 625 625 625 625 17 14 625 625 625 625 625 625 625 625 625 625 625 625 625 625 625 11 625 16 625 625 625 625 625 625 625 625 625 625 625 625 625 625 625 625 625 625 625 625 625 625 625 625 625 625 625 625 625 625 625 625
625 625 625 625 625 625 625 625 0 17 11 625 15 625 625 625 625 625 625 625 625 625 625 625 625 625 625 625 625 625 8 625 625 625 625 625 625 625 625 625 625 625 625 625 625 625 625 625 625 15 625 625 625 625 625 625 625 625 625 625 625 625 625 625 625 625 625 625 625 625 625 625 625 625 625 625 625 625 625 625 625 625 625 625 6 625 625 625 625
625 625 625 625 625 625 625 625 17 0 625 625 8 625 625 625 625 625 625 625 625 12 625 625 625 625 625 625 625 13 19 625 625 625 625 625 625 625 625 625 625 625 625 625 625 625 625 625 625 625 625 625 625 625 625 625 625 625 625 625 625 625 625 625 625 625 625 16 625 625 625 625 625 625 625 625 625 625 625 625 625 625 625 625 625 625 625 625 625
625 625 5 625 625 625 625 625 11 625 0 625 625 625 625 625 625 625 625 625 625 625 625 625 625 625 625 625 625 625 6 625 625 625 625 625 625 625 625 625 625 625 625 625 625 625 625 625 625 625 625 625 625 625 625 625 625 625 625 625 625 625 625 625 625 625 625 625 625 625 625 625 625 625 625 625 625 625 14 625 625 625 625 625 13 625 625 625 625
625 625 625 625 625 625 625 625 625 625 625 0 625 625 625 625 625 625 625 625 625 625 625 625 625 625 625 625 625 625 625 625 8 15 625 625 625 625 625 625 625 14 19 625 625 625 625 625 625 625 625 625 625 625 625 625 625 625 625 625 625 625 625 625 625 625 625 625 625 625 4 625 625 625 625 625 625 625 625 15 625 625 625 625 625 625 625 625 625
625 625 625 625 625 625 625 625 15 8 625 625 0 625 625 625 625 625 625 625 625 14 625 625 625 625 625 625 625 625 625 625 625 625 625 625 625 625 625 11 625 625 625 625 625 625 625 625 625 15 625 625 625 625 625 625 625 625 625 625 625 625 625 625 625 625 625 625 625 625 625 625 625 14 625 625 625 625 625 625 625 625 625 625 625 625 625 625 625
625 625 625 625 625 625 625 625 625 625 625 625 625 0 625 625 625 625 11 625 625 625 625 11 625 625 9 625 625 625 625 625 625 625 625 625 625 625 625 625 625 625 625 625 625 625 625 625 625 625 625 625 625 625 625 625 625 625 625 625 625 625 625 625 625 625 625 625 625 625 625 625 625 625 625 625 6 625 625 625 625 625 625 625 625 13 625 625 625
625 625 625 625 625 17 625 625 625 625 625 625 625 625 0 625 625 625 625 625 625 625 625 625 20 625 625 625 625 625 625 625 625 625 625 625 625 625 625 625 625 625 625 625 625 625 625 19 625 625 625 11 625 625 625 625 625 625 14 625 625 625 625 625 625 625 625 625 22 29 625 625 625 625 625 625 625 625 625 625 625 625 625 625 625 625 625 625 625
625 15 625 625 625 625 625 625 625 625 625 625 625 625 625 0 625 625 625 625 625 625 625 625 625 16 625 625 625 625 625 625 625 625 15 625 625 625 625 625 625 625 625 625 625 625 625 625 625 625 625 625 2 625 625 625 15 625 625 625 625 625 625 625 625 625 625 625 625 625 625 625 625 625 625 625 625 625 15 625 625 625 625 625 625 625 625 625 625
625 8 625 625 625 625 625 625 625 625 625 625 625 625 625 625 0 6 625 625 625 625 625 625 625 625 625 625 625 625 625 625 625 625 13 625 625 625 625 625 625 625 625 2 625 625 625 625 14 625 625 625 625 625 625 625 625 625 625 625 625 625 625 625 625 625 625 625 625 625 625 625 625 625 625 625 625 625 625 625 13 625 625 625 625 625 625 625 625
625 9 38 625 625 625 625 625 625 625 625 625 625 625 625 625 6 0 625 625 625 625 625 625 625 10 625 625 625 625 625 625 625 625 625 625 625 625 625 625 625 625 625 5 625 625 625 625 15 625 625 625 625 625 625 625 625 625 625 625 625 625 625 625 625 625 625 625 625 625 625 625 625 625 625 625 625 625 625 625 625 18 625 625 625 625 625 625 625
625 625 625 11 625 625 625 625 625 625 625 625 625 11 625 625 625 625 0 625 625 625 625 18 625 625 3 625 625 625 625 625 625 625 625 625 625 625 625 625 625 625 625 625 625 625 625 625 625 625 625 625 625 625 625 625 625 625 625 14 625 25 625 625 625 625 625 625 625 625 625 625 625 625 625 625 625 625 625 625 625 625 11 625 625 625 625 2 625
625 625 625 625 625 625 625 625 625 625 625 625 625 625 625 625 625 625 625 0 625 625 625 625 625 625 625 625 625 625 625 625 625 625 625 625 625 625 625 625 625 625 625 625 3 11 625 625 625 625 625 625 625 625 625 625 625 625 625 625 625 625 625 625 625 625 625 625 625 625 625 625 625 625 625 6 625 625 625 625 625 625 625 625 625 625 625 625 625
625 625 625 625 625 625 625 625 625 625 625 625 625 625 625 625 625 625 625 625 0 625 625 625 625 625 625 625 625 625 625 625 625 625 625 625 625 4 625 625 625 625 625 625 625 625 625 625 625 625 625 625 20 13 625 625 12 625 625 625 625 625 625 21 625 625 625 625 625 625 625 625 625 625 625 625 7 625 625 625 625 625 625 625 625 625 625 625 625
625 625 625 625 625 625 625 625 625 12 625 625 14 625 625 625 625 625 625 625 625 0 625 625 625 625 625 625 625 8 625 625 625 625 625 625 625 625 625 625 625 625 625 625 625 625 625 625 625 625 625 625 625 625 625 625 625 625 625 625 625 625 625 625 625 625 625 625 625 6 625 625 625 5 625 625 625 625 625 625 625 625 625 625 625 625 625 625 625
10 625 625 625 625 625 625 625 625 625 625 625 625 625 625 625 625 625 625 625 625 625 0 625 625 625 625 625 625 625 625 625 625 625 625 625 625 625 625 625 625 625 625 625 625 625 625 625 625 11 625 625 625 17 625 625 625 28 625 625 625 625 625 7 625 625 625 625 625 625 625 625 625 625 625 625 625 625 625 625 625 625 625 625 14 21 625 625 625
625 625 625 625 625 625 625 625 625 625 625 625 625 11 625 625 625 625 18 625 625 625 625 0 625 625 625 13 625 625 625 625 625 625 625 625 11 625 625 625 625 625 625 625 625 625 625 625 625 625 625 625 625 625 625 625 625 625 625 625 625 17 625 625 625 625 625 625 625 625 625 625 625 625 625 625 625 625 625 625 625 625 625 625 625 14 625 625 625
625 625 625 625 625 625 625 625 625 625 625 625 625 625 20 625 625 625 625 625 625 625 625 625 0 625 625 625 625 625 625 625 625 625 625 15 625 625 625 27 16 625 625 625 625 625 625 625 625 31 625 625 625 625 625 625 625 16 17 625 625 625 625 625 625 625 625 625 8 625 625 625 625 625 625 625 625 625 625 625 625 625 625 625 625 625 625 625 625
625 4 28 625 625 625 625 625 625 625 625 625 625 625 625 16 625 10 625 625 625 625 625 625 625 0 625 625 625 625 625 625 625 625 625 625 625 625 625 625 625 625 625 625 625 625 625 625 625 625 625 625 625 625 625 625 625 625 625 625 625 625 625 625 625 625 625 625 625 625 625 625 625 625 625 625 625 625 22 625 625 625 625 625 625 625 625 625 625
625 625 625 625 625 625 625 625 625 625 625 625 625 9 625 625 625 625 3 625 625 625 625 625 625 625 0 625 625 625 625 625 625 625 625 625 625 10 625 625 625 625 625 625 625 625 625 625 625 625 625 625 625 625 625 625 625 625 625 625 625 625 625 625 625 625 625 625 625 625 625 625 625 625 625 625 10 625 625 625 625 625 625 625 625 625 625 1 625
625 625 625 625 625 625 625 625 625 625 625 625 625 625 625 625 625 625 625 625 625 625 625 13 625 625 625 0 625 625 625 625 625 625 625 625 16 625 625 625 625 625 12 625 625 625 625 625 625 625 625 625 625 625 625 625 625 10 625 625 625 625 625 625 625 625 625 625 625 625 625 625 9 625 625 625 625 625 625 625 625 625 625 625 625 14 625 625 625
625 625 625 625 625 625 625 625 625 625 625 625 625 625 625 625 625 625 625 625 625 625 625 625 625 625 625 625 0 625 625 625 625 625 625 625 625 625 7 625 625 625 625 625 625 625 625 625 18 625 625 625 625 625 7 625 625 625 625 625 625 625 625 625 625 625 625 625 625 625 625 625 625 625 625 625 625 625 625 625 7 20 625 625 625 625 625 625 625
625 625 625 625 625 625 625 625 625 13 625 625 625 625 625 625 625 625 625 625 625 8 625 625 625 625 625 625 625 0 625 625 625 625 625 625 625 625 625 625 625 625 625 625 625 625 625 625 625 625 625 625 625 625 625 625 625 625 625 625 625 625 625 625 625 625 625 5 625 12 625 625 625 625 625 625 625 625 625 625 625 625 625 625 625 625 625 625 625
625 625 9 625 625 625 625 625 8 19 6 625 625 625 625 625 625 625 625 625 625 625 625 625 625 625 625 625 625 625 0 625 625 625 625 625 625 625 625 625 625 625 625 625 625 625 625 625 625 625 625 625 625 625 625 625 625 625 625 625 625 625 625 625 625 625 625 33 625 625 625 625 625 625 625 625 625 625 625 625 625 625 625 625 625 625 625 625 625
625 625 625 625 625 625 625 625 625 625 625 625 625 625 625 625 625 625 625 625 625 625 625 625 625 625 625 625 625 625 625 0 10 625 625 17 625 625 625 625 19 625 17 625 625 625 625 625 625 625 625 625 625 625 625 20 625 625 625 625 625 625 625 625 23 625 625 625 625 625 12 625 19 625 625 625 625 625 625 625 625 625 625 625 625 625 625 625 625
625 625 625 625 625 625 625 625 625 625 625 8 625 625 625 625 625 625 625 625 625 625 625 625 625 625 625 625 625 625 625 10 0 23 625 625 625 625 625 625 625 625 625 625 625 625 625 625 625 625 625 625 625 625 625 24 625 625 625 625 625 625 625 625 625 625 625 625 625 625 3 625 625 625 625 625 625 625 625 625 625 625 625 625 625 625 625 625 625
625 625 625 625 625 625 625 625 625 625 625 15 625 625 625 625 625 625 625 625 625 625 625 625 625 625 625 625 625 625 625 625 23 0 625 625 625 625 625 625 625 7 625 625 12 625 625 625 625 625 625 625 625 625 625 45 625 625 625 625 625 625 625 625 625 625 625 625 625 625 625 8 625 625 625 625 625 625 625 625 625 625 625 625 625 625 625 625 625
625 15 625 625 625 625 625 625 625 625 625 625 625 625 625 15 13 625 625 625 625 625 625 625 625 625 625 625 625 625 625 625 625 625 0 625 625 625 625 625 625 625 625 625 625 625 625 625 625 625 625 625 625 625 10 625 10 625 625 625 625 625 625 625 625 625 625 625 625 625 625 625 625 625 625 625 625 625 625 625 9 625 625 625 625 625 625 625 625
625 625 625 625 625 625 625 625 625 625 625 625 625 625 625 625 625 625 625 625 625 625 625 625 15 625 625 625 625 625 625 17 625 625 625 0 625 625 625 625 7 625 625 625 625 625 22 625 625 625 625 625 625 625 625 625 625 625 625 625 625 625 625 625 29 625 625 625 12 625 625 625 625 625 625 625 625 625 625 625 625 625 625 625 625 625 625 625 625
625 625 625 625 625 625 625 625 625 625 625 625 625 625 625 625 625 625 625 625 625 625 625 11 625 625 625 16 625 625 625 625 625 625 625 625 0 625 625 625 625 625 10 625 625 625 625 625 625 625 625 625 625 625 625 625 625 625 625 625 625 9 625 625 625 625 625 625 625 625 625 625 625 625 625 625 625 625 625 8 625 625 625 625 625 625 625 625 625
625 625 625 13 625 625 625 17 625 625 625 625 625 625 625 625 625 625 625 625 4 625 625 625 625 625 10 625 625 625 625 625 625 625 625 625 625 0 625 625 625 625 625 625 625 625 625 625 625 625 625 625 625 625 625 625 11 625 625 625 625 625 625 625 625 625 625 625 625 625 625 625 625 625 625 625 9 625 625 625 625 625 625 625 625 625 625 11 625
625 625 625 625 14 625 625 14 625 625 625 625 625 625 625 625 625 625 625 625 625 625 625 625 625 625 625 625 7 625 625 625 625 625 625 625 625 625 0 625 625 625 625 625 625 625 625 625 625 625 625 625 625 625 11 625 625 625 625 625 625 625 625 625 625 625 31 625 625 625 625 625 625 625 625 625 625 625 625 625 625 25 625 57 625 625 625 625 625
625 625 625 625 625 13 625 625 625 625 625 625 11 625 625 625 625 625 625 625 625 625 625 625 27 625 625 625 625 625 625 625 625 625 625 625 625 625 625 0 625 625 625 625 625 625 625 625 625 11 625 625 625 625 625 625 625 625 14 625 10 625 625 625 625 625 625 625 625 625 625 625 625 17 625 625 625 625 625 625 625 625 625 625 625 625 625 625 625
625 625 625 625 625 625 625 625 625 625 625 625 625 625 625 625 625 625 625 625 625 625 625 625 16 625 625 625 625 625 625 19 625 625 625 7 625 625 625 625 0 625 625 625 625 625 625 625 625 625 625 625 625 625 625 625 625 8 625 625 625 625 625 625 625 625 625 625 625 625 625 625 5 625 625 625 625 625 625 625 625 625 625 625 625 625 625 625 625
625 625 625 625 625 625 625 625 625 625 625 14 625 625 625 625 625 625 625 625 625 625 625 625 625 625 625 625 625 625 625 625 625 7 625 625 625 625 625 625 625 0 625 625 625 625 625 625 625 625 625 625 625 625 625 625 625 625 625 625 625 625 2 625 625 625 625 625 625 625 625 4 625 625 625 625 625 625 625 12 625 625 625 625 625 625 625 625 625
625 625 625 625 625 625 625 625 625 625 625 19 625 625 625 625 625 625 625 625 625 625 625 625 625 625 625 12 625 625 625 17 625 625 625 625 10 625 625 625 625 625 0 625 625 625 625 625 625 625 625 625 625 625 625 625 625 625 625 625 625 625 625 625 625 625 625 625 625 625 19 625 10 625 625 625 625 625 625 13 625 625 625 625 625 625 625 625 625
625 7 625 625 625 625 625 625 625 625 625 625 625 625 625 625 2 5 625 625 625 625 625 625 625 625 625 625 625 625 625 625 625 625 625 625 625 625 625 625 625 625 625 0 625 625 625 625 625 625 625 625 625 625 625 625 625 625 625 625 625 625 625 625 625 625 625 625 625 625 625 625 625 625 625 625 625 625 625 625 625 625 625 625 625 625 625 625 625
625 625 625 625 625 625 625 625 625 625 625 625 625 625 625 625 625 625 625 3 625 625 625 625 625 625 625 625 625 625 625 625 625 12 625 625 625 625 625 625 625 625 625 625 0 11 625 625 625 625 11 625 625 625 625 57 625 625 625 625 625 625 625 625 625 625 625 625 625 625 625 11 625 625 625 9 625 625 625 625 625 625 625 625 625 625 625 625 11
625 625 625 625 625 625 22 625 625 625 625 625 625 625 625 625 625 625 625 11 625 625 625 625 625 625 625 625 625 625 625 625 625 625 625 625 625 625 625 625 625 625 625 625 11 0 625 625 625 625 4 625 625 625 625 625 625 625 625 625 625 625 625 625 625 9 625 625 625 625 625 625 625 625 625 13 625 625 625 625 625 625 625 19 625 625 625 625 625
625 625 625 625 625 625 625 625 625 625 625 625 625 625 625 625 625 625 625 625 625 625 625 625 625 625 625 625 625 625 625 625 625 625 625 22 625 625 625 625 625 625 625 625 625 625 0 8 625 625 625 625 625 625 625 625 625 625 625 625 625 625 625 625 24 625 625 625 15 625 625 625 625 625 625 625 625 625 625 625 625 625 625 625 625 625 625 625 625
625 625 625 625 625 625 625 625 625 625 625 625 625 625 19 625 625 625 625 625 625 625 625 625 625 625 625 625 625 625 625 625 625 625 625 625 625 625 625 625 625 625 625 625 625 625 8 0 625 625 625 625 625 625 625 625 625 625 625 625 625 625 625 625 31 625 625 625 15 47 625 625 625 625 625 625 625 625 625 625 625 625 625 625 625 625 625 625 625
625 625 625 625 625 625 625 625 625 625 625 625 625 625 625 625 14 15 625 625 625 625 625 625 625 625 625 625 18 625 625 625 625 625 625 625 625 625 625 625 625 625 625 625 625 625 625 625 0 625 625 625 625 625 625 625 625 625 625 625 625 625 625 625 625 625 625 625 625 625 625 625 625 625 625 625 625 625 625 625 16 4 625 625 625 625 625 625 625
625 625 625 625 625 625 625 625 15 625 625 625 15 625 625 625 625 625 625 625 625 625 11 625 31 625 625 625 625 625 625 625 625 625 625 625 625 625 625 11 625 625 625 625 625 625 625 625 625 0 625 625 625 625 625 625 625 31 625 625 625 625 625 625 625 625 625 625 625 625 625 625 625 625 625 625 625 625 625 625 625 625 625 625 12 625 625 625 625
625 625 625 625 625 625 625 625 625 625 625 625 625 625 625 625 625 625 625 625 625 625 625 625 625 625 625 625 625 625 625 625 625 625 625 625 625 625 625 625 625 625 625 625 11 4 625 625 625 625 0 625 625 625 625 625 625 625 625 625 625 625 625 625 625 9 625 625 625 625 625 625 625 625 625 625 625 625 625 625 625 625 625 625 625 625 625 625 1
625 625 625 625 625 7 625 625 625 625 625 625 625 625 11 625 625 625 625 625 625 625 625 625 625 625 625 625 625 625 625 625 625 625 625 625 625 625 625 625 625 625 625 625 625 625 625 625 625 625 625 0 625 625 625 625 625 625 4 625 6 625 625 625 625 625 625 625 625 625 625 625 625 625 625 625 625 625 625 625 625 625 625 625 625 625 625 625 625
625 625 625 625 625 625 625 625 625 625 625 625 625 625 625 2 625 625 625 625 20 625 625 625 625 625 625 625 625 625 625 625 625 625 625 625 625 625 625 625 625 625 625 625 625 625 625 625 625 625 625 625 0 625 625 625 16 625 625 625 625 625 625 16 625 625 625 625 625 625 625 625 625 625 625 625 625 9 14 625 625 625 625 625 625 625 625 625 625
625 625 625 625 625 625 625 625 625 625 625 625 625 625 625 625 625 625 625 625 13 625 17 625 625 625 625 625 625 625 625 625 625 625 625 625 625 625 625 625 625 625 625 625 625 625 625 625 625 625 625 625 625 0 625 625 625 625 625 625 625 625 625 13 625 625 625 625 625 625 625 625 625 625 625 625 11 625 625 625 625 625 625 625 625 7 625 625 625
625 625 625 625 625 625 625 11 625 625 625 625 625 625 625 625 625 625 625 625 625 625 625 625 625 625 625 625 7 625 625 625 625 625 10 625 625 625 11 625 625 625 625 625 625 625 625 625 625 625 625 625 625 625 0 625 12 625 625 625 625 625 625 625 625 625 625 625 625 625 625 625 625 625 625 625 625 625 625 625 8 625 625 625 625 625 625 625 625
625 625 625 625 625 625 625 625 625 625 625 625 625 625 625 625 625 625 625 625 625 625 625 625 625 625 625 625 625 625 625 20 24 45 625 625 625 625 625 625 625 625 625 625 57 625 625 625 625 625 625 625 625 625 625 0 625 625 625 625 625 625 625 625 4 625 625 625 625 625 625 625 625 625 625 625 625 625 625 625 625 625 625 625 625 625 625 625 625
625 625 625 625 625 625 625 16 625 625 625 625 625 625 625 15 625 625 625 625 12 625 625 625 625 625 625 625 625 625 625 625 625 625 10 625 625 11 625 625 625 625 625 625 625 625 625 625 625 625 625 625 16 625 12 625 0 625 625 625 625 625 625 625 625 625 625 625 625 625 625 625 625 625 625 625 625 625 625 625 625 625 625 625 625 625 625 625 625
625 625 625 625 625 625 625 625 625 625 625 625 625 625 625 625 625 625 625 625 625 625 28 625 16 625 625 10 625 625 625 625 625 625 625 625 625 625 625 625 8 625 625 625 625 625 625 625 625 31 625 625 625 625 625 625 625 0 625 625 625 625 625 625 625 625 625 625 625 625 625 625 9 625 625 625 625 625 625 625 625 625 625 625 625 19 625 625 625
625 625 625 625 625 625 625 625 625 625 625 625 625 625 14 625 625 625 625 625 625 625 625 625 17 625 625 625 625 625 625 625 625 625 625 625 625 625 625 14 625 625 625 625 625 625 625 625 625 625 625 4 625 625 625 625 625 625 0 625 5 625 625 625 625 625 625 625 625 625 625 625 625 625 625 625 625 625 625 625 625 625 625 625 625 625 625 625 625
625 625 625 6 10 625 625 625 625 625 625 625 625 625 625 625 625 625 14 625 625 625 625 625 625 625 625 625 625 625 625 625 625 625 625 625 625 625 625 625 625 625 625 625 625 625 625 625 625 625 625 625 625 625 625 625 625 625 625 0 625 625 625 625 625 625 13 625 625 625 625 625 625 625 625 625 625 625 625 625 625 625 13 625 625 625 625 625 625
625 625 625 625 625 6 625 625 625 625 625 625 625 625 625 625 625 625 625 625 625 625 625 625 625 625 625 625 625 625 625 625 625 625 625 625 625 625 625 10 625 625 625 625 625 625 625 625 625 625 625 6 625 625 625 625 625 625 5 625 0 625 625 625 625 625 625 625 625 625 625 625 625 625 625 625 625 625 625 625 625 625 625 625 625 625 625 625 625
625 625 625 625 625 625 625 625 625 625 625 625 625 625 625 625 625 625 25 625 625 625 625 17 625 625 625 625 625 625 625 625 625 625 625 625 9 625 625 625 625 625 625 625 625 625 625 625 625 625 625 625 625 625 625 625 625 625 625 625 625 0 13 625 625 7 625 625 625 625 625 625 625 625 625 625 625 625 625 7 625 625 24 625 625 625 625 625 625
625 625 625 625 625 625 625 625 625 625 625 625 625 625 625 625 625 625 625 625 625 625 625 625 625 625 625 625 625 625 625 625 625 625 625 625 625 625 625 625 625 2 625 625 625 625 625 625 625 625 625 625 625 625 625 625 625 625 625 625 625 13 0 625 625 11 625 625 625 625 625 3 625 625 625 625 625 625 625 12 625 625 625 625 625 625 625 625 5
5 625 625 625 625 625 625 625 625 625 625 625 625 625 625 625 625 625 625 625 21 625 7 625 625 625 625 625 625 625 625 625 625 625 625 625 625 625 625 625 625 625 625 625 625 625 625 625 625 625 625 625 16 13 625 625 625 625 625 625 625 625 625 0 625 625 625 625 625 625 625 625 625 625 625 625 625 9 625 625 625 625 625 625 625 625 625 625 625
625 625 625 625 625 625 625 625 625 625 625 625 625 625 625 625 625 625 625 625 625 625 625 625 625 625 625 625 625 625 625 23 625 625 625 29 625 625 625 625 625 625 625 625 625 625 24 31 625 625 625 625 625 625 625 4 625 625 625 625 625 625 625 625 0 625 625 625 625 625 625 625 625 625 625 625 625 625 625 625 625 625 625 625 625 625 625 625 625
625 625 625 625 625 625 20 625 625 625 625 625 625 625 625 625 625 625 625 625 625 625 625 625 625 625 625 625 625 625 625 625 625 625 625 625 625 625 625 625 625 625 625 625 625 9 625 625 625 625 9 625 625 625 625 625 625 625 625 625 625 7 11 625 625 0 625 625 625 625 625 625 625 625 625 625 625 625 625 625 625 625 22 625 625 625 625 625 9
625 625 625 625 21 625 625 625 625 625 625 625 625 625 625 625 625 625 625 625 625 625 625 625 625 625 625 625 625 625 625 625 625 625 625 625 625 625 31 625 625 625 625 625 625 625 625 625 625 625 625 625 625 625 625 625 625 625 625 13 625 625 625 625 625 625 0 625 625 625 625 625 625 625 2 625 625 625 625 625 625 625 13 26 625 625 9 625 625
625 625 41 625 625 625 625 625 625 16 625 625 625 625 625 625 625 625 625 625 625 625 625 625 625 625 625 625 625 5 33 625 625 625 625 625 625 625 625 625 625 625 625 625 625 625 625 625 625 625 625 625 625 625 625 625 625 625 625 625 625 625 625 625 625 625 625 0 625 17 625 625 625 625 625 625 625 625 625 625 625 625 625 625 625 625 625 625 625
625 625 625 625 625 625 625 625 625 625 625 625 625 625 22 625 625 625 625 625 625 625 625 625 8 625 625 625 625 625 625 625 625 625 625 12 625 625 625 625 625 625 625 625 625 625 15 15 625 625 625 625 625 625 625 625 625 625 625 625 625 625 625 625 625 625 625 625 0 625 625 625 625 625 625 625 625 625 625 625 625 625 625 625 625 625 625 625 625
625 625 625 625 625 15 625 625 625 625 625 625 625 625 29 625 625 625 625 625 625 6 625 625 625 625 625 625 625 12 625 625 625 625 625 625 625 625 625 625 625 625 625 625 625 625 625 47 625 625 625 625 625 625 625 625 625 625 625 625 625 625 625 625 625 625 625 17 625 0 625 625 625 5 625 625 625 625 625 625 625 625 625 625 625 625 625 625 625
625 625 625 625 625 625 625 625 625 625 625 4 625 625 625 625 625 625 625 625 625 625 625 625 625 625 625 625 625 625 625 12 3 625 625 625 625 625 625 625 625 625 19 625 625 625 625 625 625 625 625 625 625 625 625 625 625 625 625 625 625 625 625 625 625 625 625 625 625 625 0 625 625 625 625 625 625 625 625 625 625 625 625 625 625 625 625 625 625
625 625 625 625 625 625 625 625 625 625 625 625 625 625 625 625 625 625 625 625 625 625 625 625 625 625 625 625 625 625 625 625 625 8 625 625 625 625 625 625 625 4 625 625 11 625 625 625 625 625 625 625 625 625 625 625 625 625 625 625 625 625 3 625 625 625 625 625 625 625 625 0 625 625 625 625 625 625 625 625 625 625 625 625 625 625 625 625 3
625 625 625 625 625 625 625 625 625 625 625 625 625 625 625 625 625 625 625 625 625 625 625 625 625 625 625 9 625 625 625 19 625 625 625 625 625 625 625 625 5 625 10 625 625 625 625 625 625 625 625 625 625 625 625 625 625 9 625 625 625 625 625 625 625 625 625 625 625 625 625 625 0 625 625 625 625 625 625 625 625 625 625 625 625 625 625 625 625
625 625 625 625 625 13 625 625 625 625 625 625 14 625 625 625 625 625 625 625 625 5 625 625 625 625 625 625 625 625 625 625 625 625 625 625 625 625 625 17 625 625 625 625 625 625 625 625 625 625 625 625 625 625 625 625 625 625 625 625 625 625 625 625 625 625 625 625 625 5 625 625 625 0 625 625 625 625 625 625 625 625 625 625 625 625 625 625 625
625 625 625 625 625 625 11 625 625 625 625 625 625 625 625 625 625 625 625 625 625 625 625 625 625 625 625 625 625 625 625 625 625 625 625 625 625 625 625 625 625 625 625 625 625 625 625 625 625 625 625 625 625 625 625 625 625 625 625 625 625 625 625 625 625 625 2 625 625 625 625 625 625 625 0 625 625 625 625 625 625 625 625 24 625 625 8 625 625
625 625 625 625 625 625 625 625 625 625 625 625 625 625 625 625 625 625 625 6 625 625 625 625 625 625 625 625 625 625 625 625 625 625 625 625 625 625 625 625 625 625 625 625 9 13 625 625 625 625 625 625 625 625 625 625 625 625 625 625 625 625 625 625 625 625 625 625 625 625 625 625 625 625 625 0 625 625 625 625 625 625 625 14 625 625 625 625 625
625 625 625 625 625 625 625 625 625 625 625 625 625 6 625 625 625 625 625 625 7 625 625 625 625 625 10 625 625 625 625 625 625 625 625 625 625 9 625 625 625 625 625 625 625 625 625 625 625 625 625 625 625 11 625 625 625 625 625 625 625 625 625 625 625 625 625 625 625 625 625 625 625 625 625 625 0 625 625 625 625 625 625 625 625 12 625 625 625
5 625 625 625 625 625 625 625 625 625 625 625 625 625 625 625 625 625 625 625 625 625 625 625 625 625 625 625 625 625 625 625 625 625 625 625 625 625 625 625 625 625 625 625 625 625 625 625 625 625 625 625 9 625 625 625 625 625 625 625 625 625 625 9 625 625 625 625 625 625 625 625 625 625 625 625 625 0 8 625 625 625 625 625 625 625 625 625 625
9 625 16 625 625 625 625 625 625 625 14 625 625 625 625 15 625 625 625 625 625 625 625 625 625 22 625 625 625 625 625 625 625 625 625 625 625 625 625 625 625 625 625 625 625 625 625 625 625 625 625 625 14 625 625 625 625 625 625 625 625 625 625 625 625 625 625 625 625 625 625 625 625 625 625 625 625 8 0 625 625 625 625 625 14 625 625 625 625
625 625 625 625 625 625 625 625 625 625 625 15 625 625 625 625 625 625 625 625 625 625 625 625 625 625 625 625 625 625 625 625 625 625 625 625 8 625 625 625 625 12 13 625 625 625 625 625 625 625 625 625 625 625 625 625 625 625 625 625 625 7 12 625 625 625 625 625 625 625 625 625 625 625 625 625 625 625 625 0 625 625 625 625 625 625 625 625 625
625 625 625 625 625 625 625 625 625 625 625 625 625 625 625 625 13 625 625 625 625 625 625 625 625 625 625 625 7 625 625 625 625 625 9 625 625 625 625 625 625 625 625 625 625 625 625 625 16 625 625 625 625 625 8 625 625 625 625 625 625 625 625 625 625 625 625 625 625 625 625 625 625 625 625 625 625 625 625 625 0 625 625 625 625 625 625 625 625
625 625 625 625 625 625 625 625 625 625 625 625 625 625 625 625 625 18 625 625 625 625 625 625 625 625 625 625 20 625 625 625 625 625 625 625 625 625 25 625 625 625 625 625 625 625 625 625 4 625 625 625 625 625 625 625 625 625 625 625 625 625 625 625 625 625 625 625 625 625 625 625 625 625 625 625 625 625 625 625 625 0 625 625 625 625 625 625 625
625 625 625 625 625 625 10 625 625 625 625 625 625 625 625 625 625 625 11 625 625 625 625 625 625 625 625 625 625 625 625 625 625 625 625 625 625 625 625 625 625 625 625 625 625 625 625 625 625 625 625 625 625 625 625 625 625 625 625 13 625 24 625 625 625 22 13 625 625 625 625 625 625 625 625 625 625 625 625 625 625 625 0 625 625 625 8 625 625
625 625 625 625 625 625 18 625 625 625 625 625 625 625 625 625 625 625 625 625 625 625 625 625 625 625 625 625 625 625 625 625 625 625 625 625 625 625 57 625 625 625 625 625 625 19 625 625 625 625 625 625 625 625 625 625 625 625 625 625 625 625 625 625 625 625 26 625 625 625 625 625 625 625 24 14 625 625 625 625 625 625 625 0 625 625 625 625 625
15 625 625 625 625 625 625 625 6 625 13 625 625 625 625 625 625 625 625 625 625 625 14 625 625 625 625 625 625 625 625 625 625 625 625 625 625 625 625 625 625 625 625 625 625 625 625 625 625 12 625 625 625 625 625 625 625 625 625 625 625 625 625 625 625 625 625 625 625 625 625 625 625 625 625 625 625 625 14 625 625 625 625 625 0 625 625 625 625
625 625 625 625 625 625 625 625 625 625 625 625 625 13 625 625 625 625 625 625 625 625 21 14 625 625 625 14 625 625 625 625 625 625 625 625 625 625 625 625 625 625 625 625 625 625 625 625 625 625 625 625 625 7 625 625 625 19 625 625 625 625 625 625 625 625 625 625 625 625 625 625 625 625 625 625 12 625 625 625 625 625 625 625 625 0 625 625 625
625 625 625 625 625 625 4 625 625 625 625 625 625 625 625 625 625 625 625 625 625 625 625 625 625 625 625 625 625 625 625 625 625 625 625 625 625 625 625 625 625 625 625 625 625 625 625 625 625 625 625 625 625 625 625 625 625 625 625 625 625 625 625 625 625 625 9 625 625 625 625 625 625 625 8 625 625 625 625 625 625 625 8 625 625 625 0 625 625
625 625 625 10 625 625 625 625 625 625 625 625 625 625 625 625 625 625 2 625 625 625 625 625 625 625 1 625 625 625 625 625 625 625 625 625 625 11 625 625 625 625 625 625 625 625 625 625 625 625 625 625 625 625 625 625 625 625 625 625 625 625 625 625 625 625 625 625 625 625 625 625 625 625 625 625 625 625 625 625 625 625 625 625 625 625 625 0 625
625 625 625 625 625 625 625 625 625 625 625 625 625 625 625 625 625 625 625 625 625 625 625 625 625 625 625 625 625 625 625 625 625 625 625 625 625 625 625 625 625 625 625 625 11 625 625 625 625 625 1 625 625 625 625 625 625 625 625 625 625 625 5 625 625 9 625 625 625 625 625 3 625 625 625 625 625 625 625 625 625 625 625 625 625 625 625 625 0
EOF
